NAME : 10_3_3_3_(25).dat
COMMENT : Henke, Speranza, Wäscher, 2015
TYPE : MCVRP
DIMENSION : 11
EDGE_WEIGHT_TYPE : DISTANCE_MATRIX
CAPACITY : 1000
VEHICLES : 2
PRODUCT TYPES : 3
COMPARTMENTS : 3
NODE_COORD_SECTION
1 50 50
2 63.44 22.7
3 22.25 85.66
4 16.77 45.34
5 46.39 40.23
6 98.17 40.2
7 25.94 74.34
8 71.49 90.1
9 27.13 70.56
10 70.59 23.22
11 95.35 11.49
DEMAND_SECTION
1 0 0 0
2 67 40 44
3 103 75 23
4 55 12 49
5 4 50 26
6 39 51 8
7 107 52 19
8 115 74 12
9 23 1 8
10 117 4 43
11 15 27 24
DEPOT_SECTION
1
EOF